9
0, 412, 235, 672, 572, 714, 719, 734, 284
412, 0, 418, 733, 216, 476, 645, 558, 537
235, 418, 0, 438, 488, 540, 492, 533, 519
672, 733, 438, 0, 664, 494, 229, 397, 956
572, 216, 488, 664, 0, 285, 516, 388, 745
714, 476, 540, 494, 285, 0, 286, 118, 948
719, 645, 492, 229, 516, 286, 0, 175, 994
734, 558, 533, 397, 388, 118, 175, 0, 988
284, 537, 519, 956, 745, 948, 994, 988, 0
